
******************************************************************************
This program contains Ipopt, a library for large-scale nonlinear optimization.
 Ipopt is released as open source code under the Eclipse Public License (EPL).
         For more information visit http://projects.coin-or.org/Ipopt
******************************************************************************

This is Ipopt version 3.12.4, running with linear solver mumps.
NOTE: Other linear solvers might be more efficient (see Ipopt documentation).

Number of nonzeros in equality constraint Jacobian...:        0
Number of nonzeros in inequality constraint Jacobian.:        0
Number of nonzeros in Lagrangian Hessian.............:        0

Total number of variables............................:     2601
                     variables with only lower bounds:        0
                variables with lower and upper bounds:        0
                     variables with only upper bounds:        0
Total number of equality constraints.................:        0
Total number of inequality constraints...............:        0
        inequality constraints with only lower bounds:        0
   inequality constraints with lower and upper bounds:        0
        inequality constraints with only upper bounds:        0

iter    objective    inf_pr   inf_du lg(mu)  ||d||  lg(rg) alpha_du alpha_pr  ls
   0 2.2306771e-002 0.00e+000 2.12e-001   0.0 0.00e+000    -  0.00e+000 0.00e+000   0
   1 5.0551909e-003 0.00e+000 9.49e-002 -11.0 2.12e-001    -  1.00e+000 1.00e+000f  1
   2 4.4745215e-004 0.00e+000 1.31e-002 -11.0 1.76e-001    -  1.00e+000 1.00e+000f  1
   3 3.6404466e-004 0.00e+000 1.10e-002 -11.0 2.64e-002    -  1.00e+000 1.00e+000f  1
   4 6.1564241e-005 0.00e+000 3.34e-003 -11.0 2.00e-001    -  1.00e+000 1.00e+000f  1
   5 4.1167749e-005 0.00e+000 2.71e-003 -11.0 5.69e-002    -  1.00e+000 1.00e+000f  1
   6 1.6874597e-005 0.00e+000 1.02e-003 -11.0 1.78e-001    -  1.00e+000 1.00e+000f  1
   7 1.2170836e-005 0.00e+000 8.30e-004 -11.0 9.83e-002    -  1.00e+000 1.00e+000f  1
   8 1.0861725e-005 0.00e+000 3.24e-003 -11.0 3.78e-001    -  1.00e+000 5.00e-001f  2
   9 1.0678305e-005 0.00e+000 3.40e-003 -11.0 1.65e+001    -  1.00e+000 3.91e-003f  9
iter    objective    inf_pr   inf_du lg(mu)  ||d||  lg(rg) alpha_du alpha_pr  ls
  10 6.7001563e-006 0.00e+000 1.56e-003 -11.0 2.40e+000    -  1.00e+000 6.25e-002f  5
  11 3.4827591e-006 0.00e+000 2.01e-003 -11.0 2.91e-001    -  1.00e+000 5.00e-001f  2
  12 3.2129912e-006 0.00e+000 1.25e-003 -11.0 5.96e-001    -  1.00e+000 1.25e-001f  4
  13 2.6066775e-006 0.00e+000 8.43e-004 -11.0 8.30e-002    -  1.00e+000 2.50e-001f  3
  14 2.5698279e-006 0.00e+000 1.22e-003 -11.0 2.08e-001    -  1.00e+000 6.25e-002f  5
  15 2.5698279e-006 0.00e+000 1.22e-003 -11.0 1.32e+000    -  1.00e+000 2.22e-016f 53
  16 2.5698279e-006 0.00e+000 1.22e-003 -11.0 1.32e+000    -  1.00e+000 1.73e-018f 60
  17 2.5698279e-006 0.00e+000 1.22e-003 -11.0 1.32e+000    -  1.00e+000 6.94e-018f 58
  18 2.1001780e-006 0.00e+000 5.88e-004 -11.0 1.22e-003    -  1.00e+000 1.00e+000f  1
  19 1.9867548e-006 0.00e+000 4.97e-004 -11.0 1.54e-003    -  1.00e+000 1.00e+000f  1
iter    objective    inf_pr   inf_du lg(mu)  ||d||  lg(rg) alpha_du alpha_pr  ls
  20 1.9612573e-006 0.00e+000 4.77e-004 -11.0 1.33e-003    -  1.00e+000 1.00e+000f  1
  21 1.3703050e-006 0.00e+000 4.58e-004 -11.0 3.54e-002    -  1.00e+000 1.00e+000f  1
  22 1.0442519e-006 0.00e+000 8.67e-004 -11.0 9.70e-002    -  1.00e+000 5.00e-001f  2
  23 7.2670154e-007 0.00e+000 7.16e-004 -11.0 8.71e-002    -  1.00e+000 5.00e-001f  2
  24 6.0488693e-007 0.00e+000 3.67e-004 -11.0 9.97e-002    -  1.00e+000 2.50e-001f  3
  25 5.7591859e-007 0.00e+000 2.14e-004 -11.0 1.12e-002    -  1.00e+000 5.00e-001f  2
  26 4.9508885e-007 0.00e+000 2.57e-004 -11.0 1.62e-002    -  1.00e+000 1.00e+000f  1
  27 4.4835552e-007 0.00e+000 1.23e-004 -11.0 1.27e-002    -  1.00e+000 1.00e+000f  1
  28 4.4835552e-007 0.00e+000 1.23e-004 -11.0 3.42e-001    -  1.00e+000 9.09e-013f 41
  29 4.4085120e-007 0.00e+000 1.17e-004 -11.0 6.98e-002    -  1.00e+000 2.50e-001f  3
iter    objective    inf_pr   inf_du lg(mu)  ||d||  lg(rg) alpha_du alpha_pr  ls
  30 4.3437091e-007 0.00e+000 1.19e-004 -11.0 7.92e-001    -  1.00e+000 1.56e-002f  7
  31 4.3437091e-007 0.00e+000 1.19e-004 -11.0 2.44e-001    -  1.00e+000 2.84e-014f 46
  32 4.3437091e-007 0.00e+000 1.19e-004 -11.0 2.44e-001    -  1.00e+000 1.42e-014f 47
  33 4.3437091e-007 0.00e+000 1.19e-004 -11.0 2.44e-001    -  1.00e+000 2.22e-016f 53
  34 4.3433001e-007 0.00e+000 1.08e-004 -11.0 1.19e-004    -  1.00e+000 2.50e-001f  3
  35 4.3396851e-007 0.00e+000 7.09e-005 -11.0 3.26e-004    -  1.00e+000 5.00e-001f  2

Number of Iterations....: 35

                                   (scaled)                 (unscaled)
Objective...............:  4.3396851027638400e-007   4.3396851027638400e-007
Dual infeasibility......:  7.0868901025603886e-005   7.0868901025603886e-005
Constraint violation....:  0.0000000000000000e+000   0.0000000000000000e+000
Complementarity.........:  0.0000000000000000e+000   0.0000000000000000e+000
Overall NLP error.......:  7.0868901025603886e-005   7.0868901025603886e-005


Number of objective function evaluations             = 514
Number of objective gradient evaluations             = 36
Number of equality constraint evaluations            = 0
Number of inequality constraint evaluations          = 0
Number of equality constraint Jacobian evaluations   = 0
Number of inequality constraint Jacobian evaluations = 0
Number of Lagrangian Hessian evaluations             = 0
Total CPU secs in IPOPT (w/o function evaluations)   =      1.846
Total CPU secs in NLP function evaluations           =     33.874

EXIT: Optimal Solution Found.
